*SPEF "ieee 1481-1999"
*DESIGN "counter"
*DATE "16:57:07 Sunday May 31, 2026"
*VENDOR "The OpenROAD Project"
*PROGRAM "OpenROAD"
*VERSION "26Q1-1024-gdcf36133a"
*DESIGN_FLOW "NAME_SCOPE LOCAL" "PIN_CAP NONE"
*DIVIDER /
*DELIMITER :
*BUS_DELIMITER []
*T_UNIT 1 NS
*C_UNIT 1 PF
*R_UNIT 1 OHM
*L_UNIT 1 HENRY

*NAME_MAP
*3 clk
*4 q[0]
*5 q[1]
*6 q[2]
*7 q[3]
*8 rst
*9 _00_
*10 _01_
*11 _02_
*12 _03_
*13 _04_
*14 _05_
*15 _06_
*16 _07_
*17 clknet_0_clk
*18 clknet_1_0__leaf_clk
*19 clknet_1_1__leaf_clk
*20 net1
*21 net2
*22 net3
*23 net4
*24 net5
*25 ANTENNA_clkbuf_0_clk_I
*26 ANTENNA_input1_I
*27 FILLER_0_104
*28 FILLER_0_138
*29 FILLER_0_172
*30 FILLER_0_2
*31 FILLER_0_206
*32 FILLER_0_240
*33 FILLER_0_274
*34 FILLER_0_308
*35 FILLER_0_342
*36 FILLER_0_36
*37 FILLER_0_376
*38 FILLER_0_410
*39 FILLER_0_444
*40 FILLER_0_478
*41 FILLER_0_512
*42 FILLER_0_520
*43 FILLER_0_70
*44 FILLER_10_101
*45 FILLER_10_107
*46 FILLER_10_171
*47 FILLER_10_177
*48 FILLER_10_2
*49 FILLER_10_241
*50 FILLER_10_247
*51 FILLER_10_311
*52 FILLER_10_317
*53 FILLER_10_34
*54 FILLER_10_37
*55 FILLER_10_381
*56 FILLER_10_387
*57 FILLER_10_451
*58 FILLER_10_457
*59 FILLER_11_136
*60 FILLER_11_142
*61 FILLER_11_2
*62 FILLER_11_206
*63 FILLER_11_212
*64 FILLER_11_276
*65 FILLER_11_282
*66 FILLER_11_346
*67 FILLER_11_352
*68 FILLER_11_416
*69 FILLER_11_422
*70 FILLER_11_486
*71 FILLER_11_492
*72 FILLER_11_508
*73 FILLER_11_516
*74 FILLER_11_520
*75 FILLER_11_66
*76 FILLER_11_72
*77 FILLER_12_101
*78 FILLER_12_107
*79 FILLER_12_171
*80 FILLER_12_177
*81 FILLER_12_2
*82 FILLER_12_241
*83 FILLER_12_247
*84 FILLER_12_311
*85 FILLER_12_317
*86 FILLER_12_34
*87 FILLER_12_37
*88 FILLER_12_381
*89 FILLER_12_387
*90 FILLER_12_451
*91 FILLER_12_457
*92 FILLER_13_136
*93 FILLER_13_142
*94 FILLER_13_2
*95 FILLER_13_206
*96 FILLER_13_212
*97 FILLER_13_276
*98 FILLER_13_282
*99 FILLER_13_346
*100 FILLER_13_352
*101 FILLER_13_416
*102 FILLER_13_422
*103 FILLER_13_486
*104 FILLER_13_492
*105 FILLER_13_508
*106 FILLER_13_516
*107 FILLER_13_520
*108 FILLER_13_66
*109 FILLER_13_72
*110 FILLER_14_101
*111 FILLER_14_107
*112 FILLER_14_171
*113 FILLER_14_177
*114 FILLER_14_2
*115 FILLER_14_241
*116 FILLER_14_247
*117 FILLER_14_311
*118 FILLER_14_317
*119 FILLER_14_34
*120 FILLER_14_37
*121 FILLER_14_381
*122 FILLER_14_387
*123 FILLER_14_451
*124 FILLER_14_457
*125 FILLER_15_136
*126 FILLER_15_142
*127 FILLER_15_2
*128 FILLER_15_206
*129 FILLER_15_212
*130 FILLER_15_276
*131 FILLER_15_282
*132 FILLER_15_346
*133 FILLER_15_352
*134 FILLER_15_416
*135 FILLER_15_422
*136 FILLER_15_486
*137 FILLER_15_492
*138 FILLER_15_508
*139 FILLER_15_516
*140 FILLER_15_520
*141 FILLER_15_66
*142 FILLER_15_72
*143 FILLER_16_101
*144 FILLER_16_107
*145 FILLER_16_171
*146 FILLER_16_177
*147 FILLER_16_2
*148 FILLER_16_241
*149 FILLER_16_247
*150 FILLER_16_311
*151 FILLER_16_317
*152 FILLER_16_34
*153 FILLER_16_37
*154 FILLER_16_381
*155 FILLER_16_387
*156 FILLER_16_451
*157 FILLER_16_457
*158 FILLER_17_136
*159 FILLER_17_142
*160 FILLER_17_2
*161 FILLER_17_206
*162 FILLER_17_212
*163 FILLER_17_276
*164 FILLER_17_282
*165 FILLER_17_346
*166 FILLER_17_352
*167 FILLER_17_416
*168 FILLER_17_422
*169 FILLER_17_486
*170 FILLER_17_492
*171 FILLER_17_508
*172 FILLER_17_516
*173 FILLER_17_520
*174 FILLER_17_66
*175 FILLER_17_72
*176 FILLER_18_101
*177 FILLER_18_107
*178 FILLER_18_171
*179 FILLER_18_177
*180 FILLER_18_2
*181 FILLER_18_241
*182 FILLER_18_247
*183 FILLER_18_311
*184 FILLER_18_317
*185 FILLER_18_34
*186 FILLER_18_37
*187 FILLER_18_381
*188 FILLER_18_387
*189 FILLER_18_451
*190 FILLER_18_457
*191 FILLER_19_136
*192 FILLER_19_142
*193 FILLER_19_2
*194 FILLER_19_206
*195 FILLER_19_212
*196 FILLER_19_276
*197 FILLER_19_282
*198 FILLER_19_346
*199 FILLER_19_352
*200 FILLER_19_416
*201 FILLER_19_422
*202 FILLER_19_486
*203 FILLER_19_492
*204 FILLER_19_508
*205 FILLER_19_516
*206 FILLER_19_520
*207 FILLER_19_66
*208 FILLER_19_72
*209 FILLER_1_136
*210 FILLER_1_142
*211 FILLER_1_2
*212 FILLER_1_206
*213 FILLER_1_212
*214 FILLER_1_276
*215 FILLER_1_282
*216 FILLER_1_346
*217 FILLER_1_352
*218 FILLER_1_416
*219 FILLER_1_422
*220 FILLER_1_486
*221 FILLER_1_492
*222 FILLER_1_508
*223 FILLER_1_516
*224 FILLER_1_520
*225 FILLER_1_66
*226 FILLER_1_72
*227 FILLER_20_101
*228 FILLER_20_107
*229 FILLER_20_171
*230 FILLER_20_177
*231 FILLER_20_2
*232 FILLER_20_241
*233 FILLER_20_247
*234 FILLER_20_311
*235 FILLER_20_317
*236 FILLER_20_34
*237 FILLER_20_37
*238 FILLER_20_381
*239 FILLER_20_387
*240 FILLER_20_451
*241 FILLER_20_457
*242 FILLER_21_136
*243 FILLER_21_142
*244 FILLER_21_2
*245 FILLER_21_206
*246 FILLER_21_212
*247 FILLER_21_276
*248 FILLER_21_282
*249 FILLER_21_346
*250 FILLER_21_352
*251 FILLER_21_416
*252 FILLER_21_422
*253 FILLER_21_486
*254 FILLER_21_492
*255 FILLER_21_508
*256 FILLER_21_516
*257 FILLER_21_520
*258 FILLER_21_66
*259 FILLER_21_72
*260 FILLER_22_101
*261 FILLER_22_107
*262 FILLER_22_171
*263 FILLER_22_177
*264 FILLER_22_2
*265 FILLER_22_241
*266 FILLER_22_247
*267 FILLER_22_311
*268 FILLER_22_317
*269 FILLER_22_34
*270 FILLER_22_37
*271 FILLER_22_381
*272 FILLER_22_387
*273 FILLER_22_451
*274 FILLER_22_457
*275 FILLER_23_136
*276 FILLER_23_142
*277 FILLER_23_2
*278 FILLER_23_206
*279 FILLER_23_212
*280 FILLER_23_276
*281 FILLER_23_282
*282 FILLER_23_346
*283 FILLER_23_352
*284 FILLER_23_416
*285 FILLER_23_422
*286 FILLER_23_486
*287 FILLER_23_492
*288 FILLER_23_508
*289 FILLER_23_516
*290 FILLER_23_520
*291 FILLER_23_66
*292 FILLER_23_72
*293 FILLER_24_101
*294 FILLER_24_107
*295 FILLER_24_171
*296 FILLER_24_177
*297 FILLER_24_2
*298 FILLER_24_241
*299 FILLER_24_247
*300 FILLER_24_311
*301 FILLER_24_317
*302 FILLER_24_34
*303 FILLER_24_37
*304 FILLER_24_381
*305 FILLER_24_387
*306 FILLER_24_451
*307 FILLER_24_457
*308 FILLER_25_136
*309 FILLER_25_142
*310 FILLER_25_2
*311 FILLER_25_206
*312 FILLER_25_212
*313 FILLER_25_276
*314 FILLER_25_282
*315 FILLER_25_346
*316 FILLER_25_352
*317 FILLER_25_416
*318 FILLER_25_422
*319 FILLER_25_486
*320 FILLER_25_492
*321 FILLER_25_508
*322 FILLER_25_516
*323 FILLER_25_520
*324 FILLER_25_66
*325 FILLER_25_72
*326 FILLER_26_101
*327 FILLER_26_107
*328 FILLER_26_171
*329 FILLER_26_177
*330 FILLER_26_2
*331 FILLER_26_241
*332 FILLER_26_247
*333 FILLER_26_311
*334 FILLER_26_317
*335 FILLER_26_34
*336 FILLER_26_37
*337 FILLER_26_381
*338 FILLER_26_387
*339 FILLER_26_451
*340 FILLER_26_457
*341 FILLER_27_136
*342 FILLER_27_142
*343 FILLER_27_2
*344 FILLER_27_206
*345 FILLER_27_212
*346 FILLER_27_276
*347 FILLER_27_282
*348 FILLER_27_346
*349 FILLER_27_352
*350 FILLER_27_416
*351 FILLER_27_422
*352 FILLER_27_486
*353 FILLER_27_492
*354 FILLER_27_508
*355 FILLER_27_516
*356 FILLER_27_520
*357 FILLER_27_66
*358 FILLER_27_72
*359 FILLER_28_101
*360 FILLER_28_107
*361 FILLER_28_171
*362 FILLER_28_177
*363 FILLER_28_2
*364 FILLER_28_241
*365 FILLER_28_247
*366 FILLER_28_311
*367 FILLER_28_317
*368 FILLER_28_34
*369 FILLER_28_37
*370 FILLER_28_381
*371 FILLER_28_387
*372 FILLER_28_451
*373 FILLER_28_457
*374 FILLER_29_136
*375 FILLER_29_142
*376 FILLER_29_2
*377 FILLER_29_206
*378 FILLER_29_212
*379 FILLER_29_276
*380 FILLER_29_282
*381 FILLER_29_346
*382 FILLER_29_352
*383 FILLER_29_416
*384 FILLER_29_422
*385 FILLER_29_486
*386 FILLER_29_492
*387 FILLER_29_508
*388 FILLER_29_516
*389 FILLER_29_520
*390 FILLER_29_66
*391 FILLER_29_72
*392 FILLER_2_101
*393 FILLER_2_107
*394 FILLER_2_171
*395 FILLER_2_177
*396 FILLER_2_2
*397 FILLER_2_241
*398 FILLER_2_247
*399 FILLER_2_311
*400 FILLER_2_317
*401 FILLER_2_34
*402 FILLER_2_37
*403 FILLER_2_381
*404 FILLER_2_387
*405 FILLER_2_451
*406 FILLER_2_457
*407 FILLER_30_101
*408 FILLER_30_107
*409 FILLER_30_171
*410 FILLER_30_177
*411 FILLER_30_2
*412 FILLER_30_241
*413 FILLER_30_247
*414 FILLER_30_311
*415 FILLER_30_317
*416 FILLER_30_34
*417 FILLER_30_37
*418 FILLER_30_381
*419 FILLER_30_387
*420 FILLER_30_451
*421 FILLER_30_457
*422 FILLER_31_136
*423 FILLER_31_142
*424 FILLER_31_2
*425 FILLER_31_206
*426 FILLER_31_212
*427 FILLER_31_276
*428 FILLER_31_282
*429 FILLER_31_346
*430 FILLER_31_352
*431 FILLER_31_416
*432 FILLER_31_422
*433 FILLER_31_486
*434 FILLER_31_492
*435 FILLER_31_508
*436 FILLER_31_516
*437 FILLER_31_520
*438 FILLER_31_66
*439 FILLER_31_72
*440 FILLER_32_101
*441 FILLER_32_107
*442 FILLER_32_171
*443 FILLER_32_177
*444 FILLER_32_2
*445 FILLER_32_241
*446 FILLER_32_247
*447 FILLER_32_311
*448 FILLER_32_317
*449 FILLER_32_34
*450 FILLER_32_37
*451 FILLER_32_381
*452 FILLER_32_387
*453 FILLER_32_451
*454 FILLER_32_457
*455 FILLER_33_136
*456 FILLER_33_142
*457 FILLER_33_2
*458 FILLER_33_206
*459 FILLER_33_212
*460 FILLER_33_276
*461 FILLER_33_282
*462 FILLER_33_346
*463 FILLER_33_352
*464 FILLER_33_416
*465 FILLER_33_422
*466 FILLER_33_486
*467 FILLER_33_492
*468 FILLER_33_508
*469 FILLER_33_516
*470 FILLER_33_520
*471 FILLER_33_66
*472 FILLER_33_72
*473 FILLER_34_101
*474 FILLER_34_107
*475 FILLER_34_171
*476 FILLER_34_177
*477 FILLER_34_2
*478 FILLER_34_241
*479 FILLER_34_247
*480 FILLER_34_311
*481 FILLER_34_317
*482 FILLER_34_34
*483 FILLER_34_37
*484 FILLER_34_381
*485 FILLER_34_387
*486 FILLER_34_451
*487 FILLER_34_457
*488 FILLER_35_136
*489 FILLER_35_142
*490 FILLER_35_2
*491 FILLER_35_206
*492 FILLER_35_212
*493 FILLER_35_276
*494 FILLER_35_282
*495 FILLER_35_346
*496 FILLER_35_352
*497 FILLER_35_416
*498 FILLER_35_422
*499 FILLER_35_486
*500 FILLER_35_492
*501 FILLER_35_508
*502 FILLER_35_516
*503 FILLER_35_520
*504 FILLER_35_66
*505 FILLER_35_72
*506 FILLER_36_101
*507 FILLER_36_107
*508 FILLER_36_171
*509 FILLER_36_177
*510 FILLER_36_2
*511 FILLER_36_241
*512 FILLER_36_297
*513 FILLER_36_313
*514 FILLER_36_317
*515 FILLER_36_34
*516 FILLER_36_37
*517 FILLER_36_381
*518 FILLER_36_387
*519 FILLER_36_451
*520 FILLER_36_457
*521 FILLER_37_136
*522 FILLER_37_142
*523 FILLER_37_2
*524 FILLER_37_206
*525 FILLER_37_212
*526 FILLER_37_276
*527 FILLER_37_282
*528 FILLER_37_346
*529 FILLER_37_352
*530 FILLER_37_416
*531 FILLER_37_422
*532 FILLER_37_486
*533 FILLER_37_492
*534 FILLER_37_508
*535 FILLER_37_516
*536 FILLER_37_520
*537 FILLER_37_66
*538 FILLER_37_72
*539 FILLER_38_101
*540 FILLER_38_107
*541 FILLER_38_171
*542 FILLER_38_177
*543 FILLER_38_2
*544 FILLER_38_241
*545 FILLER_38_247
*546 FILLER_38_311
*547 FILLER_38_317
*548 FILLER_38_34
*549 FILLER_38_37
*550 FILLER_38_381
*551 FILLER_38_387
*552 FILLER_38_451
*553 FILLER_38_457
*554 FILLER_39_136
*555 FILLER_39_142
*556 FILLER_39_18
*557 FILLER_39_206
*558 FILLER_39_212
*559 FILLER_39_244
*560 FILLER_39_252
*561 FILLER_39_260
*562 FILLER_39_262
*563 FILLER_39_271
*564 FILLER_39_279
*565 FILLER_39_282
*566 FILLER_39_346
*567 FILLER_39_352
*568 FILLER_39_416
*569 FILLER_39_422
*570 FILLER_39_486
*571 FILLER_39_492
*572 FILLER_39_50
*573 FILLER_39_508
*574 FILLER_39_516
*575 FILLER_39_520
*576 FILLER_39_66
*577 FILLER_39_72
*578 FILLER_3_136
*579 FILLER_3_142
*580 FILLER_3_2
*581 FILLER_3_206
*582 FILLER_3_212
*583 FILLER_3_276
*584 FILLER_3_282
*585 FILLER_3_346
*586 FILLER_3_352
*587 FILLER_3_416
*588 FILLER_3_422
*589 FILLER_3_486
*590 FILLER_3_492
*591 FILLER_3_508
*592 FILLER_3_516
*593 FILLER_3_520
*594 FILLER_3_66
*595 FILLER_3_72
*596 FILLER_40_101
*597 FILLER_40_107
*598 FILLER_40_171
*599 FILLER_40_177
*600 FILLER_40_18
*601 FILLER_40_209
*602 FILLER_40_217
*603 FILLER_40_221
*604 FILLER_40_236
*605 FILLER_40_244
*606 FILLER_40_276
*607 FILLER_40_308
*608 FILLER_40_312
*609 FILLER_40_314
*610 FILLER_40_317
*611 FILLER_40_34
*612 FILLER_40_37
*613 FILLER_40_381
*614 FILLER_40_387
*615 FILLER_40_451
*616 FILLER_40_457
*617 FILLER_41_136
*618 FILLER_41_142
*619 FILLER_41_206
*620 FILLER_41_241
*621 FILLER_41_245
*622 FILLER_41_276
*623 FILLER_41_282
*624 FILLER_41_346
*625 FILLER_41_352
*626 FILLER_41_4
*627 FILLER_41_416
*628 FILLER_41_422
*629 FILLER_41_486
*630 FILLER_41_492
*631 FILLER_41_508
*632 FILLER_41_516
*633 FILLER_41_520
*634 FILLER_41_68
*635 FILLER_41_72
*636 FILLER_42_101
*637 FILLER_42_107
*638 FILLER_42_171
*639 FILLER_42_177
*640 FILLER_42_2
*641 FILLER_42_209
*642 FILLER_42_217
*643 FILLER_42_221
*644 FILLER_42_228
*645 FILLER_42_236
*646 FILLER_42_240
*647 FILLER_42_242
*648 FILLER_42_297
*649 FILLER_42_313
*650 FILLER_42_317
*651 FILLER_42_34
*652 FILLER_42_37
*653 FILLER_42_381
*654 FILLER_42_387
*655 FILLER_42_451
*656 FILLER_42_457
*657 FILLER_43_136
*658 FILLER_43_142
*659 FILLER_43_2
*660 FILLER_43_206
*661 FILLER_43_212
*662 FILLER_43_228
*663 FILLER_43_236
*664 FILLER_43_240
*665 FILLER_43_276
*666 FILLER_43_282
*667 FILLER_43_346
*668 FILLER_43_352
*669 FILLER_43_416
*670 FILLER_43_422
*671 FILLER_43_486
*672 FILLER_43_492
*673 FILLER_43_508
*674 FILLER_43_516
*675 FILLER_43_520
*676 FILLER_43_66
*677 FILLER_43_72
*678 FILLER_44_101
*679 FILLER_44_107
*680 FILLER_44_171
*681 FILLER_44_177
*682 FILLER_44_2
*683 FILLER_44_241
*684 FILLER_44_247
*685 FILLER_44_256
*686 FILLER_44_258
*687 FILLER_44_309
*688 FILLER_44_313
*689 FILLER_44_317
*690 FILLER_44_34
*691 FILLER_44_37
*692 FILLER_44_381
*693 FILLER_44_387
*694 FILLER_44_451
*695 FILLER_44_457
*696 FILLER_45_136
*697 FILLER_45_142
*698 FILLER_45_2
*699 FILLER_45_206
*700 FILLER_45_212
*701 FILLER_45_244
*702 FILLER_45_252
*703 FILLER_45_279
*704 FILLER_45_282
*705 FILLER_45_346
*706 FILLER_45_352
*707 FILLER_45_416
*708 FILLER_45_422
*709 FILLER_45_486
*710 FILLER_45_492
*711 FILLER_45_508
*712 FILLER_45_516
*713 FILLER_45_520
*714 FILLER_45_66
*715 FILLER_45_72
*716 FILLER_46_101
*717 FILLER_46_107
*718 FILLER_46_171
*719 FILLER_46_177
*720 FILLER_46_2
*721 FILLER_46_241
*722 FILLER_46_247
*723 FILLER_46_311
*724 FILLER_46_317
*725 FILLER_46_34
*726 FILLER_46_37
*727 FILLER_46_381
*728 FILLER_46_387
*729 FILLER_46_451
*730 FILLER_46_457
*731 FILLER_47_136
*732 FILLER_47_142
*733 FILLER_47_2
*734 FILLER_47_206
*735 FILLER_47_212
*736 FILLER_47_276
*737 FILLER_47_282
*738 FILLER_47_346
*739 FILLER_47_352
*740 FILLER_47_416
*741 FILLER_47_422
*742 FILLER_47_486
*743 FILLER_47_492
*744 FILLER_47_508
*745 FILLER_47_516
*746 FILLER_47_520
*747 FILLER_47_66
*748 FILLER_47_72
*749 FILLER_48_101
*750 FILLER_48_107
*751 FILLER_48_171
*752 FILLER_48_177
*753 FILLER_48_2
*754 FILLER_48_241
*755 FILLER_48_247
*756 FILLER_48_311
*757 FILLER_48_317
*758 FILLER_48_34
*759 FILLER_48_37
*760 FILLER_48_381
*761 FILLER_48_387
*762 FILLER_48_451
*763 FILLER_48_457
*764 FILLER_49_136
*765 FILLER_49_142
*766 FILLER_49_2
*767 FILLER_49_206
*768 FILLER_49_212
*769 FILLER_49_276
*770 FILLER_49_282
*771 FILLER_49_346
*772 FILLER_49_352
*773 FILLER_49_416
*774 FILLER_49_422
*775 FILLER_49_486
*776 FILLER_49_492
*777 FILLER_49_508
*778 FILLER_49_516
*779 FILLER_49_520
*780 FILLER_49_66
*781 FILLER_49_72
*782 FILLER_4_101
*783 FILLER_4_107
*784 FILLER_4_171
*785 FILLER_4_177
*786 FILLER_4_2
*787 FILLER_4_241
*788 FILLER_4_247
*789 FILLER_4_311
*790 FILLER_4_317
*791 FILLER_4_34
*792 FILLER_4_37
*793 FILLER_4_381
*794 FILLER_4_387
*795 FILLER_4_451
*796 FILLER_4_457
*797 FILLER_50_101
*798 FILLER_50_107
*799 FILLER_50_171
*800 FILLER_50_177
*801 FILLER_50_2
*802 FILLER_50_241
*803 FILLER_50_247
*804 FILLER_50_311
*805 FILLER_50_317
*806 FILLER_50_34
*807 FILLER_50_37
*808 FILLER_50_381
*809 FILLER_50_387
*810 FILLER_50_451
*811 FILLER_50_457
*812 FILLER_51_136
*813 FILLER_51_142
*814 FILLER_51_2
*815 FILLER_51_206
*816 FILLER_51_212
*817 FILLER_51_276
*818 FILLER_51_282
*819 FILLER_51_346
*820 FILLER_51_352
*821 FILLER_51_416
*822 FILLER_51_422
*823 FILLER_51_486
*824 FILLER_51_492
*825 FILLER_51_508
*826 FILLER_51_516
*827 FILLER_51_520
*828 FILLER_51_66
*829 FILLER_51_72
*830 FILLER_52_101
*831 FILLER_52_107
*832 FILLER_52_171
*833 FILLER_52_177
*834 FILLER_52_2
*835 FILLER_52_241
*836 FILLER_52_247
*837 FILLER_52_311
*838 FILLER_52_317
*839 FILLER_52_34
*840 FILLER_52_37
*841 FILLER_52_381
*842 FILLER_52_387
*843 FILLER_52_451
*844 FILLER_52_457
*845 FILLER_53_136
*846 FILLER_53_142
*847 FILLER_53_2
*848 FILLER_53_206
*849 FILLER_53_212
*850 FILLER_53_276
*851 FILLER_53_282
*852 FILLER_53_346
*853 FILLER_53_352
*854 FILLER_53_416
*855 FILLER_53_422
*856 FILLER_53_486
*857 FILLER_53_492
*858 FILLER_53_508
*859 FILLER_53_516
*860 FILLER_53_520
*861 FILLER_53_66
*862 FILLER_53_72
*863 FILLER_54_101
*864 FILLER_54_107
*865 FILLER_54_171
*866 FILLER_54_177
*867 FILLER_54_2
*868 FILLER_54_241
*869 FILLER_54_247
*870 FILLER_54_311
*871 FILLER_54_317
*872 FILLER_54_34
*873 FILLER_54_37
*874 FILLER_54_381
*875 FILLER_54_387
*876 FILLER_54_451
*877 FILLER_54_457
*878 FILLER_55_136
*879 FILLER_55_142
*880 FILLER_55_2
*881 FILLER_55_206
*882 FILLER_55_212
*883 FILLER_55_276
*884 FILLER_55_282
*885 FILLER_55_346
*886 FILLER_55_352
*887 FILLER_55_416
*888 FILLER_55_422
*889 FILLER_55_486
*890 FILLER_55_492
*891 FILLER_55_508
*892 FILLER_55_516
*893 FILLER_55_520
*894 FILLER_55_66
*895 FILLER_55_72
*896 FILLER_56_101
*897 FILLER_56_107
*898 FILLER_56_171
*899 FILLER_56_177
*900 FILLER_56_2
*901 FILLER_56_241
*902 FILLER_56_247
*903 FILLER_56_311
*904 FILLER_56_317
*905 FILLER_56_34
*906 FILLER_56_37
*907 FILLER_56_381
*908 FILLER_56_387
*909 FILLER_56_451
*910 FILLER_56_457
*911 FILLER_57_136
*912 FILLER_57_142
*913 FILLER_57_2
*914 FILLER_57_206
*915 FILLER_57_212
*916 FILLER_57_276
*917 FILLER_57_282
*918 FILLER_57_346
*919 FILLER_57_352
*920 FILLER_57_416
*921 FILLER_57_422
*922 FILLER_57_486
*923 FILLER_57_492
*924 FILLER_57_508
*925 FILLER_57_516
*926 FILLER_57_520
*927 FILLER_57_66
*928 FILLER_57_72
*929 FILLER_58_101
*930 FILLER_58_107
*931 FILLER_58_171
*932 FILLER_58_177
*933 FILLER_58_2
*934 FILLER_58_241
*935 FILLER_58_247
*936 FILLER_58_311
*937 FILLER_58_317
*938 FILLER_58_34
*939 FILLER_58_37
*940 FILLER_58_381
*941 FILLER_58_387
*942 FILLER_58_451
*943 FILLER_58_457
*944 FILLER_59_136
*945 FILLER_59_142
*946 FILLER_59_2
*947 FILLER_59_206
*948 FILLER_59_212
*949 FILLER_59_276
*950 FILLER_59_282
*951 FILLER_59_346
*952 FILLER_59_352
*953 FILLER_59_416
*954 FILLER_59_422
*955 FILLER_59_486
*956 FILLER_59_492
*957 FILLER_59_508
*958 FILLER_59_516
*959 FILLER_59_520
*960 FILLER_59_66
*961 FILLER_59_72
*962 FILLER_5_136
*963 FILLER_5_142
*964 FILLER_5_2
*965 FILLER_5_206
*966 FILLER_5_212
*967 FILLER_5_276
*968 FILLER_5_282
*969 FILLER_5_346
*970 FILLER_5_352
*971 FILLER_5_416
*972 FILLER_5_422
*973 FILLER_5_486
*974 FILLER_5_492
*975 FILLER_5_508
*976 FILLER_5_516
*977 FILLER_5_520
*978 FILLER_5_66
*979 FILLER_5_72
*980 FILLER_60_101
*981 FILLER_60_107
*982 FILLER_60_171
*983 FILLER_60_177
*984 FILLER_60_2
*985 FILLER_60_241
*986 FILLER_60_247
*987 FILLER_60_311
*988 FILLER_60_317
*989 FILLER_60_34
*990 FILLER_60_37
*991 FILLER_60_381
*992 FILLER_60_387
*993 FILLER_60_451
*994 FILLER_60_457
*995 FILLER_61_136
*996 FILLER_61_142
*997 FILLER_61_2
*998 FILLER_61_206
*999 FILLER_61_212
*1000 FILLER_61_276
*1001 FILLER_61_282
*1002 FILLER_61_346
*1003 FILLER_61_352
*1004 FILLER_61_416
*1005 FILLER_61_422
*1006 FILLER_61_486
*1007 FILLER_61_492
*1008 FILLER_61_508
*1009 FILLER_61_516
*1010 FILLER_61_520
*1011 FILLER_61_66
*1012 FILLER_61_72
*1013 FILLER_62_101
*1014 FILLER_62_107
*1015 FILLER_62_171
*1016 FILLER_62_177
*1017 FILLER_62_2
*1018 FILLER_62_241
*1019 FILLER_62_247
*1020 FILLER_62_311
*1021 FILLER_62_317
*1022 FILLER_62_34
*1023 FILLER_62_37
*1024 FILLER_62_381
*1025 FILLER_62_387
*1026 FILLER_62_451
*1027 FILLER_62_457
*1028 FILLER_63_136
*1029 FILLER_63_142
*1030 FILLER_63_2
*1031 FILLER_63_206
*1032 FILLER_63_212
*1033 FILLER_63_276
*1034 FILLER_63_282
*1035 FILLER_63_346
*1036 FILLER_63_352
*1037 FILLER_63_416
*1038 FILLER_63_422
*1039 FILLER_63_486
*1040 FILLER_63_492
*1041 FILLER_63_508
*1042 FILLER_63_516
*1043 FILLER_63_520
*1044 FILLER_63_66
*1045 FILLER_63_72
*1046 FILLER_64_101
*1047 FILLER_64_107
*1048 FILLER_64_171
*1049 FILLER_64_177
*1050 FILLER_64_2
*1051 FILLER_64_241
*1052 FILLER_64_247
*1053 FILLER_64_311
*1054 FILLER_64_317
*1055 FILLER_64_34
*1056 FILLER_64_37
*1057 FILLER_64_381
*1058 FILLER_64_387
*1059 FILLER_64_451
*1060 FILLER_64_457
*1061 FILLER_65_136
*1062 FILLER_65_142
*1063 FILLER_65_2
*1064 FILLER_65_206
*1065 FILLER_65_212
*1066 FILLER_65_276
*1067 FILLER_65_282
*1068 FILLER_65_346
*1069 FILLER_65_352
*1070 FILLER_65_416
*1071 FILLER_65_422
*1072 FILLER_65_486
*1073 FILLER_65_492
*1074 FILLER_65_508
*1075 FILLER_65_516
*1076 FILLER_65_520
*1077 FILLER_65_66
*1078 FILLER_65_72
*1079 FILLER_66_101
*1080 FILLER_66_107
*1081 FILLER_66_171
*1082 FILLER_66_177
*1083 FILLER_66_2
*1084 FILLER_66_241
*1085 FILLER_66_247
*1086 FILLER_66_311
*1087 FILLER_66_317
*1088 FILLER_66_34
*1089 FILLER_66_37
*1090 FILLER_66_381
*1091 FILLER_66_387
*1092 FILLER_66_451
*1093 FILLER_66_457
*1094 FILLER_67_136
*1095 FILLER_67_142
*1096 FILLER_67_2
*1097 FILLER_67_206
*1098 FILLER_67_212
*1099 FILLER_67_276
*1100 FILLER_67_282
*1101 FILLER_67_346
*1102 FILLER_67_352
*1103 FILLER_67_416
*1104 FILLER_67_422
*1105 FILLER_67_486
*1106 FILLER_67_492
*1107 FILLER_67_508
*1108 FILLER_67_516
*1109 FILLER_67_520
*1110 FILLER_67_66
*1111 FILLER_67_72
*1112 FILLER_68_101
*1113 FILLER_68_107
*1114 FILLER_68_171
*1115 FILLER_68_177
*1116 FILLER_68_2
*1117 FILLER_68_241
*1118 FILLER_68_247
*1119 FILLER_68_311
*1120 FILLER_68_317
*1121 FILLER_68_34
*1122 FILLER_68_37
*1123 FILLER_68_381
*1124 FILLER_68_387
*1125 FILLER_68_451
*1126 FILLER_68_457
*1127 FILLER_69_136
*1128 FILLER_69_142
*1129 FILLER_69_2
*1130 FILLER_69_206
*1131 FILLER_69_212
*1132 FILLER_69_276
*1133 FILLER_69_282
*1134 FILLER_69_346
*1135 FILLER_69_352
*1136 FILLER_69_416
*1137 FILLER_69_422
*1138 FILLER_69_486
*1139 FILLER_69_492
*1140 FILLER_69_508
*1141 FILLER_69_516
*1142 FILLER_69_520
*1143 FILLER_69_66
*1144 FILLER_69_72
*1145 FILLER_6_101
*1146 FILLER_6_107
*1147 FILLER_6_171
*1148 FILLER_6_177
*1149 FILLER_6_2
*1150 FILLER_6_241
*1151 FILLER_6_247
*1152 FILLER_6_311
*1153 FILLER_6_317
*1154 FILLER_6_34
*1155 FILLER_6_37
*1156 FILLER_6_381
*1157 FILLER_6_387
*1158 FILLER_6_451
*1159 FILLER_6_457
*1160 FILLER_70_101
*1161 FILLER_70_107
*1162 FILLER_70_171
*1163 FILLER_70_177
*1164 FILLER_70_2
*1165 FILLER_70_241
*1166 FILLER_70_247
*1167 FILLER_70_311
*1168 FILLER_70_317
*1169 FILLER_70_34
*1170 FILLER_70_37
*1171 FILLER_70_381
*1172 FILLER_70_387
*1173 FILLER_70_451
*1174 FILLER_70_457
*1175 FILLER_71_136
*1176 FILLER_71_142
*1177 FILLER_71_2
*1178 FILLER_71_206
*1179 FILLER_71_212
*1180 FILLER_71_276
*1181 FILLER_71_282
*1182 FILLER_71_346
*1183 FILLER_71_352
*1184 FILLER_71_416
*1185 FILLER_71_422
*1186 FILLER_71_486
*1187 FILLER_71_492
*1188 FILLER_71_508
*1189 FILLER_71_516
*1190 FILLER_71_520
*1191 FILLER_71_66
*1192 FILLER_71_72
*1193 FILLER_72_101
*1194 FILLER_72_107
*1195 FILLER_72_171
*1196 FILLER_72_177
*1197 FILLER_72_2
*1198 FILLER_72_241
*1199 FILLER_72_247
*1200 FILLER_72_263
*1201 FILLER_72_271
*1202 FILLER_72_291
*1203 FILLER_72_307
*1204 FILLER_72_317
*1205 FILLER_72_34
*1206 FILLER_72_37
*1207 FILLER_72_381
*1208 FILLER_72_387
*1209 FILLER_72_451
*1210 FILLER_72_457
*1211 FILLER_73_104
*1212 FILLER_73_138
*1213 FILLER_73_172
*1214 FILLER_73_2
*1215 FILLER_73_206
*1216 FILLER_73_240
*1217 FILLER_73_308
*1218 FILLER_73_342
*1219 FILLER_73_36
*1220 FILLER_73_376
*1221 FILLER_73_410
*1222 FILLER_73_444
*1223 FILLER_73_478
*1224 FILLER_73_512
*1225 FILLER_73_520
*1226 FILLER_73_70
*1227 FILLER_7_136
*1228 FILLER_7_142
*1229 FILLER_7_2
*1230 FILLER_7_206
*1231 FILLER_7_212
*1232 FILLER_7_276
*1233 FILLER_7_282
*1234 FILLER_7_346
*1235 FILLER_7_352
*1236 FILLER_7_416
*1237 FILLER_7_422
*1238 FILLER_7_486
*1239 FILLER_7_492
*1240 FILLER_7_508
*1241 FILLER_7_516
*1242 FILLER_7_520
*1243 FILLER_7_66
*1244 FILLER_7_72
*1245 FILLER_8_101
*1246 FILLER_8_107
*1247 FILLER_8_171
*1248 FILLER_8_177
*1249 FILLER_8_2
*1250 FILLER_8_241
*1251 FILLER_8_247
*1252 FILLER_8_311
*1253 FILLER_8_317
*1254 FILLER_8_34
*1255 FILLER_8_37
*1256 FILLER_8_381
*1257 FILLER_8_387
*1258 FILLER_8_451
*1259 FILLER_8_457
*1260 FILLER_9_136
*1261 FILLER_9_142
*1262 FILLER_9_2
*1263 FILLER_9_206
*1264 FILLER_9_212
*1265 FILLER_9_276
*1266 FILLER_9_282
*1267 FILLER_9_346
*1268 FILLER_9_352
*1269 FILLER_9_416
*1270 FILLER_9_422
*1271 FILLER_9_486
*1272 FILLER_9_492
*1273 FILLER_9_508
*1274 FILLER_9_516
*1275 FILLER_9_520
*1276 FILLER_9_66
*1277 FILLER_9_72
*1278 PHY_EDGE_ROW_0_Left_74
*1279 PHY_EDGE_ROW_0_Right_0
*1280 PHY_EDGE_ROW_10_Left_84
*1281 PHY_EDGE_ROW_10_Right_10
*1282 PHY_EDGE_ROW_11_Left_85
*1283 PHY_EDGE_ROW_11_Right_11
*1284 PHY_EDGE_ROW_12_Left_86
*1285 PHY_EDGE_ROW_12_Right_12
*1286 PHY_EDGE_ROW_13_Left_87
*1287 PHY_EDGE_ROW_13_Right_13
*1288 PHY_EDGE_ROW_14_Left_88
*1289 PHY_EDGE_ROW_14_Right_14
*1290 PHY_EDGE_ROW_15_Left_89
*1291 PHY_EDGE_ROW_15_Right_15
*1292 PHY_EDGE_ROW_16_Left_90
*1293 PHY_EDGE_ROW_16_Right_16
*1294 PHY_EDGE_ROW_17_Left_91
*1295 PHY_EDGE_ROW_17_Right_17
*1296 PHY_EDGE_ROW_18_Left_92
*1297 PHY_EDGE_ROW_18_Right_18
*1298 PHY_EDGE_ROW_19_Left_93
*1299 PHY_EDGE_ROW_19_Right_19
*1300 PHY_EDGE_ROW_1_Left_75
*1301 PHY_EDGE_ROW_1_Right_1
*1302 PHY_EDGE_ROW_20_Left_94
*1303 PHY_EDGE_ROW_20_Right_20
*1304 PHY_EDGE_ROW_21_Left_95
*1305 PHY_EDGE_ROW_21_Right_21
*1306 PHY_EDGE_ROW_22_Left_96
*1307 PHY_EDGE_ROW_22_Right_22
*1308 PHY_EDGE_ROW_23_Left_97
*1309 PHY_EDGE_ROW_23_Right_23
*1310 PHY_EDGE_ROW_24_Left_98
*1311 PHY_EDGE_ROW_24_Right_24
*1312 PHY_EDGE_ROW_25_Left_99
*1313 PHY_EDGE_ROW_25_Right_25
*1314 PHY_EDGE_ROW_26_Left_100
*1315 PHY_EDGE_ROW_26_Right_26
*1316 PHY_EDGE_ROW_27_Left_101
*1317 PHY_EDGE_ROW_27_Right_27
*1318 PHY_EDGE_ROW_28_Left_102
*1319 PHY_EDGE_ROW_28_Right_28
*1320 PHY_EDGE_ROW_29_Left_103
*1321 PHY_EDGE_ROW_29_Right_29
*1322 PHY_EDGE_ROW_2_Left_76
*1323 PHY_EDGE_ROW_2_Right_2
*1324 PHY_EDGE_ROW_30_Left_104
*1325 PHY_EDGE_ROW_30_Right_30
*1326 PHY_EDGE_ROW_31_Left_105
*1327 PHY_EDGE_ROW_31_Right_31
*1328 PHY_EDGE_ROW_32_Left_106
*1329 PHY_EDGE_ROW_32_Right_32
*1330 PHY_EDGE_ROW_33_Left_107
*1331 PHY_EDGE_ROW_33_Right_33
*1332 PHY_EDGE_ROW_34_Left_108
*1333 PHY_EDGE_ROW_34_Right_34
*1334 PHY_EDGE_ROW_35_Left_109
*1335 PHY_EDGE_ROW_35_Right_35
*1336 PHY_EDGE_ROW_36_Left_110
*1337 PHY_EDGE_ROW_36_Right_36
*1338 PHY_EDGE_ROW_37_Left_111
*1339 PHY_EDGE_ROW_37_Right_37
*1340 PHY_EDGE_ROW_38_Left_112
*1341 PHY_EDGE_ROW_38_Right_38
*1342 PHY_EDGE_ROW_39_Left_113
*1343 PHY_EDGE_ROW_39_Right_39
*1344 PHY_EDGE_ROW_3_Left_77
*1345 PHY_EDGE_ROW_3_Right_3
*1346 PHY_EDGE_ROW_40_Left_114
*1347 PHY_EDGE_ROW_40_Right_40
*1348 PHY_EDGE_ROW_41_Left_115
*1349 PHY_EDGE_ROW_41_Right_41
*1350 PHY_EDGE_ROW_42_Left_116
*1351 PHY_EDGE_ROW_42_Right_42
*1352 PHY_EDGE_ROW_43_Left_117
*1353 PHY_EDGE_ROW_43_Right_43
*1354 PHY_EDGE_ROW_44_Left_118
*1355 PHY_EDGE_ROW_44_Right_44
*1356 PHY_EDGE_ROW_45_Left_119
*1357 PHY_EDGE_ROW_45_Right_45
*1358 PHY_EDGE_ROW_46_Left_120
*1359 PHY_EDGE_ROW_46_Right_46
*1360 PHY_EDGE_ROW_47_Left_121
*1361 PHY_EDGE_ROW_47_Right_47
*1362 PHY_EDGE_ROW_48_Left_122
*1363 PHY_EDGE_ROW_48_Right_48
*1364 PHY_EDGE_ROW_49_Left_123
*1365 PHY_EDGE_ROW_49_Right_49
*1366 PHY_EDGE_ROW_4_Left_78
*1367 PHY_EDGE_ROW_4_Right_4
*1368 PHY_EDGE_ROW_50_Left_124
*1369 PHY_EDGE_ROW_50_Right_50
*1370 PHY_EDGE_ROW_51_Left_125
*1371 PHY_EDGE_ROW_51_Right_51
*1372 PHY_EDGE_ROW_52_Left_126
*1373 PHY_EDGE_ROW_52_Right_52
*1374 PHY_EDGE_ROW_53_Left_127
*1375 PHY_EDGE_ROW_53_Right_53
*1376 PHY_EDGE_ROW_54_Left_128
*1377 PHY_EDGE_ROW_54_Right_54
*1378 PHY_EDGE_ROW_55_Left_129
*1379 PHY_EDGE_ROW_55_Right_55
*1380 PHY_EDGE_ROW_56_Left_130
*1381 PHY_EDGE_ROW_56_Right_56
*1382 PHY_EDGE_ROW_57_Left_131
*1383 PHY_EDGE_ROW_57_Right_57
*1384 PHY_EDGE_ROW_58_Left_132
*1385 PHY_EDGE_ROW_58_Right_58
*1386 PHY_EDGE_ROW_59_Left_133
*1387 PHY_EDGE_ROW_59_Right_59
*1388 PHY_EDGE_ROW_5_Left_79
*1389 PHY_EDGE_ROW_5_Right_5
*1390 PHY_EDGE_ROW_60_Left_134
*1391 PHY_EDGE_ROW_60_Right_60
*1392 PHY_EDGE_ROW_61_Left_135
*1393 PHY_EDGE_ROW_61_Right_61
*1394 PHY_EDGE_ROW_62_Left_136
*1395 PHY_EDGE_ROW_62_Right_62
*1396 PHY_EDGE_ROW_63_Left_137
*1397 PHY_EDGE_ROW_63_Right_63
*1398 PHY_EDGE_ROW_64_Left_138
*1399 PHY_EDGE_ROW_64_Right_64
*1400 PHY_EDGE_ROW_65_Left_139
*1401 PHY_EDGE_ROW_65_Right_65
*1402 PHY_EDGE_ROW_66_Left_140
*1403 PHY_EDGE_ROW_66_Right_66
*1404 PHY_EDGE_ROW_67_Left_141
*1405 PHY_EDGE_ROW_67_Right_67
*1406 PHY_EDGE_ROW_68_Left_142
*1407 PHY_EDGE_ROW_68_Right_68
*1408 PHY_EDGE_ROW_69_Left_143
*1409 PHY_EDGE_ROW_69_Right_69
*1410 PHY_EDGE_ROW_6_Left_80
*1411 PHY_EDGE_ROW_6_Right_6
*1412 PHY_EDGE_ROW_70_Left_144
*1413 PHY_EDGE_ROW_70_Right_70
*1414 PHY_EDGE_ROW_71_Left_145
*1415 PHY_EDGE_ROW_71_Right_71
*1416 PHY_EDGE_ROW_72_Left_146
*1417 PHY_EDGE_ROW_72_Right_72
*1418 PHY_EDGE_ROW_73_Left_147
*1419 PHY_EDGE_ROW_73_Right_73
*1420 PHY_EDGE_ROW_7_Left_81
*1421 PHY_EDGE_ROW_7_Right_7
*1422 PHY_EDGE_ROW_8_Left_82
*1423 PHY_EDGE_ROW_8_Right_8
*1424 PHY_EDGE_ROW_9_Left_83
*1425 PHY_EDGE_ROW_9_Right_9
*1426 TAP_TAPCELL_ROW_0_148
*1427 TAP_TAPCELL_ROW_0_149
*1428 TAP_TAPCELL_ROW_0_150
*1429 TAP_TAPCELL_ROW_0_151
*1430 TAP_TAPCELL_ROW_0_152
*1431 TAP_TAPCELL_ROW_0_153
*1432 TAP_TAPCELL_ROW_0_154
*1433 TAP_TAPCELL_ROW_0_155
*1434 TAP_TAPCELL_ROW_0_156
*1435 TAP_TAPCELL_ROW_0_157
*1436 TAP_TAPCELL_ROW_0_158
*1437 TAP_TAPCELL_ROW_0_159
*1438 TAP_TAPCELL_ROW_0_160
*1439 TAP_TAPCELL_ROW_0_161
*1440 TAP_TAPCELL_ROW_0_162
*1441 TAP_TAPCELL_ROW_10_226
*1442 TAP_TAPCELL_ROW_10_227
*1443 TAP_TAPCELL_ROW_10_228
*1444 TAP_TAPCELL_ROW_10_229
*1445 TAP_TAPCELL_ROW_10_230
*1446 TAP_TAPCELL_ROW_10_231
*1447 TAP_TAPCELL_ROW_10_232
*1448 TAP_TAPCELL_ROW_11_233
*1449 TAP_TAPCELL_ROW_11_234
*1450 TAP_TAPCELL_ROW_11_235
*1451 TAP_TAPCELL_ROW_11_236
*1452 TAP_TAPCELL_ROW_11_237
*1453 TAP_TAPCELL_ROW_11_238
*1454 TAP_TAPCELL_ROW_11_239
*1455 TAP_TAPCELL_ROW_12_240
*1456 TAP_TAPCELL_ROW_12_241
*1457 TAP_TAPCELL_ROW_12_242
*1458 TAP_TAPCELL_ROW_12_243
*1459 TAP_TAPCELL_ROW_12_244
*1460 TAP_TAPCELL_ROW_12_245
*1461 TAP_TAPCELL_ROW_12_246
*1462 TAP_TAPCELL_ROW_13_247
*1463 TAP_TAPCELL_ROW_13_248
*1464 TAP_TAPCELL_ROW_13_249
*1465 TAP_TAPCELL_ROW_13_250
*1466 TAP_TAPCELL_ROW_13_251
*1467 TAP_TAPCELL_ROW_13_252
*1468 TAP_TAPCELL_ROW_13_253
*1469 TAP_TAPCELL_ROW_14_254
*1470 TAP_TAPCELL_ROW_14_255
*1471 TAP_TAPCELL_ROW_14_256
*1472 TAP_TAPCELL_ROW_14_257
*1473 TAP_TAPCELL_ROW_14_258
*1474 TAP_TAPCELL_ROW_14_259
*1475 TAP_TAPCELL_ROW_14_260
*1476 TAP_TAPCELL_ROW_15_261
*1477 TAP_TAPCELL_ROW_15_262
*1478 TAP_TAPCELL_ROW_15_263
*1479 TAP_TAPCELL_ROW_15_264
*1480 TAP_TAPCELL_ROW_15_265
*1481 TAP_TAPCELL_ROW_15_266
*1482 TAP_TAPCELL_ROW_15_267
*1483 TAP_TAPCELL_ROW_16_268
*1484 TAP_TAPCELL_ROW_16_269
*1485 TAP_TAPCELL_ROW_16_270
*1486 TAP_TAPCELL_ROW_16_271
*1487 TAP_TAPCELL_ROW_16_272
*1488 TAP_TAPCELL_ROW_16_273
*1489 TAP_TAPCELL_ROW_16_274
*1490 TAP_TAPCELL_ROW_17_275
*1491 TAP_TAPCELL_ROW_17_276
*1492 TAP_TAPCELL_ROW_17_277
*1493 TAP_TAPCELL_ROW_17_278
*1494 TAP_TAPCELL_ROW_17_279
*1495 TAP_TAPCELL_ROW_17_280
*1496 TAP_TAPCELL_ROW_17_281
*1497 TAP_TAPCELL_ROW_18_282
*1498 TAP_TAPCELL_ROW_18_283
*1499 TAP_TAPCELL_ROW_18_284
*1500 TAP_TAPCELL_ROW_18_285
*1501 TAP_TAPCELL_ROW_18_286
*1502 TAP_TAPCELL_ROW_18_287
*1503 TAP_TAPCELL_ROW_18_288
*1504 TAP_TAPCELL_ROW_19_289
*1505 TAP_TAPCELL_ROW_19_290
*1506 TAP_TAPCELL_ROW_19_291
*1507 TAP_TAPCELL_ROW_19_292
*1508 TAP_TAPCELL_ROW_19_293
*1509 TAP_TAPCELL_ROW_19_294
*1510 TAP_TAPCELL_ROW_19_295
*1511 TAP_TAPCELL_ROW_1_163
*1512 TAP_TAPCELL_ROW_1_164
*1513 TAP_TAPCELL_ROW_1_165
*1514 TAP_TAPCELL_ROW_1_166
*1515 TAP_TAPCELL_ROW_1_167
*1516 TAP_TAPCELL_ROW_1_168
*1517 TAP_TAPCELL_ROW_1_169
*1518 TAP_TAPCELL_ROW_20_296
*1519 TAP_TAPCELL_ROW_20_297
*1520 TAP_TAPCELL_ROW_20_298
*1521 TAP_TAPCELL_ROW_20_299
*1522 TAP_TAPCELL_ROW_20_300
*1523 TAP_TAPCELL_ROW_20_301
*1524 TAP_TAPCELL_ROW_20_302
*1525 TAP_TAPCELL_ROW_21_303
*1526 TAP_TAPCELL_ROW_21_304
*1527 TAP_TAPCELL_ROW_21_305
*1528 TAP_TAPCELL_ROW_21_306
*1529 TAP_TAPCELL_ROW_21_307
*1530 TAP_TAPCELL_ROW_21_308
*1531 TAP_TAPCELL_ROW_21_309
*1532 TAP_TAPCELL_ROW_22_310
*1533 TAP_TAPCELL_ROW_22_311
*1534 TAP_TAPCELL_ROW_22_312
*1535 TAP_TAPCELL_ROW_22_313
*1536 TAP_TAPCELL_ROW_22_314
*1537 TAP_TAPCELL_ROW_22_315
*1538 TAP_TAPCELL_ROW_22_316
*1539 TAP_TAPCELL_ROW_23_317
*1540 TAP_TAPCELL_ROW_23_318
*1541 TAP_TAPCELL_ROW_23_319
*1542 TAP_TAPCELL_ROW_23_320
*1543 TAP_TAPCELL_ROW_23_321
*1544 TAP_TAPCELL_ROW_23_322
*1545 TAP_TAPCELL_ROW_23_323
*1546 TAP_TAPCELL_ROW_24_324
*1547 TAP_TAPCELL_ROW_24_325
*1548 TAP_TAPCELL_ROW_24_326
*1549 TAP_TAPCELL_ROW_24_327
*1550 TAP_TAPCELL_ROW_24_328
*1551 TAP_TAPCELL_ROW_24_329
*1552 TAP_TAPCELL_ROW_24_330
*1553 TAP_TAPCELL_ROW_25_331
*1554 TAP_TAPCELL_ROW_25_332
*1555 TAP_TAPCELL_ROW_25_333
*1556 TAP_TAPCELL_ROW_25_334
*1557 TAP_TAPCELL_ROW_25_335
*1558 TAP_TAPCELL_ROW_25_336
*1559 TAP_TAPCELL_ROW_25_337
*1560 TAP_TAPCELL_ROW_26_338
*1561 TAP_TAPCELL_ROW_26_339
*1562 TAP_TAPCELL_ROW_26_340
*1563 TAP_TAPCELL_ROW_26_341
*1564 TAP_TAPCELL_ROW_26_342
*1565 TAP_TAPCELL_ROW_26_343
*1566 TAP_TAPCELL_ROW_26_344
*1567 TAP_TAPCELL_ROW_27_345
*1568 TAP_TAPCELL_ROW_27_346
*1569 TAP_TAPCELL_ROW_27_347
*1570 TAP_TAPCELL_ROW_27_348
*1571 TAP_TAPCELL_ROW_27_349
*1572 TAP_TAPCELL_ROW_27_350
*1573 TAP_TAPCELL_ROW_27_351
*1574 TAP_TAPCELL_ROW_28_352
*1575 TAP_TAPCELL_ROW_28_353
*1576 TAP_TAPCELL_ROW_28_354
*1577 TAP_TAPCELL_ROW_28_355
*1578 TAP_TAPCELL_ROW_28_356
*1579 TAP_TAPCELL_ROW_28_357
*1580 TAP_TAPCELL_ROW_28_358
*1581 TAP_TAPCELL_ROW_29_359
*1582 TAP_TAPCELL_ROW_29_360
*1583 TAP_TAPCELL_ROW_29_361
*1584 TAP_TAPCELL_ROW_29_362
*1585 TAP_TAPCELL_ROW_29_363
*1586 TAP_TAPCELL_ROW_29_364
*1587 TAP_TAPCELL_ROW_29_365
*1588 TAP_TAPCELL_ROW_2_170
*1589 TAP_TAPCELL_ROW_2_171
*1590 TAP_TAPCELL_ROW_2_172
*1591 TAP_TAPCELL_ROW_2_173
*1592 TAP_TAPCELL_ROW_2_174
*1593 TAP_TAPCELL_ROW_2_175
*1594 TAP_TAPCELL_ROW_2_176
*1595 TAP_TAPCELL_ROW_30_366
*1596 TAP_TAPCELL_ROW_30_367
*1597 TAP_TAPCELL_ROW_30_368
*1598 TAP_TAPCELL_ROW_30_369
*1599 TAP_TAPCELL_ROW_30_370
*1600 TAP_TAPCELL_ROW_30_371
*1601 TAP_TAPCELL_ROW_30_372
*1602 TAP_TAPCELL_ROW_31_373
*1603 TAP_TAPCELL_ROW_31_374
*1604 TAP_TAPCELL_ROW_31_375
*1605 TAP_TAPCELL_ROW_31_376
*1606 TAP_TAPCELL_ROW_31_377
*1607 TAP_TAPCELL_ROW_31_378
*1608 TAP_TAPCELL_ROW_31_379
*1609 TAP_TAPCELL_ROW_32_380
*1610 TAP_TAPCELL_ROW_32_381
*1611 TAP_TAPCELL_ROW_32_382
*1612 TAP_TAPCELL_ROW_32_383
*1613 TAP_TAPCELL_ROW_32_384
*1614 TAP_TAPCELL_ROW_32_385
*1615 TAP_TAPCELL_ROW_32_386
*1616 TAP_TAPCELL_ROW_33_387
*1617 TAP_TAPCELL_ROW_33_388
*1618 TAP_TAPCELL_ROW_33_389
*1619 TAP_TAPCELL_ROW_33_390
*1620 TAP_TAPCELL_ROW_33_391
*1621 TAP_TAPCELL_ROW_33_392
*1622 TAP_TAPCELL_ROW_33_393
*1623 TAP_TAPCELL_ROW_34_394
*1624 TAP_TAPCELL_ROW_34_395
*1625 TAP_TAPCELL_ROW_34_396
*1626 TAP_TAPCELL_ROW_34_397
*1627 TAP_TAPCELL_ROW_34_398
*1628 TAP_TAPCELL_ROW_34_399
*1629 TAP_TAPCELL_ROW_34_400
*1630 TAP_TAPCELL_ROW_35_401
*1631 TAP_TAPCELL_ROW_35_402
*1632 TAP_TAPCELL_ROW_35_403
*1633 TAP_TAPCELL_ROW_35_404
*1634 TAP_TAPCELL_ROW_35_405
*1635 TAP_TAPCELL_ROW_35_406
*1636 TAP_TAPCELL_ROW_35_407
*1637 TAP_TAPCELL_ROW_36_408
*1638 TAP_TAPCELL_ROW_36_409
*1639 TAP_TAPCELL_ROW_36_410
*1640 TAP_TAPCELL_ROW_36_411
*1641 TAP_TAPCELL_ROW_36_412
*1642 TAP_TAPCELL_ROW_36_413
*1643 TAP_TAPCELL_ROW_36_414
*1644 TAP_TAPCELL_ROW_37_415
*1645 TAP_TAPCELL_ROW_37_416
*1646 TAP_TAPCELL_ROW_37_417
*1647 TAP_TAPCELL_ROW_37_418
*1648 TAP_TAPCELL_ROW_37_419
*1649 TAP_TAPCELL_ROW_37_420
*1650 TAP_TAPCELL_ROW_37_421
*1651 TAP_TAPCELL_ROW_38_422
*1652 TAP_TAPCELL_ROW_38_423
*1653 TAP_TAPCELL_ROW_38_424
*1654 TAP_TAPCELL_ROW_38_425
*1655 TAP_TAPCELL_ROW_38_426
*1656 TAP_TAPCELL_ROW_38_427
*1657 TAP_TAPCELL_ROW_38_428
*1658 TAP_TAPCELL_ROW_39_429
*1659 TAP_TAPCELL_ROW_39_430
*1660 TAP_TAPCELL_ROW_39_431
*1661 TAP_TAPCELL_ROW_39_432
*1662 TAP_TAPCELL_ROW_39_433
*1663 TAP_TAPCELL_ROW_39_434
*1664 TAP_TAPCELL_ROW_39_435
*1665 TAP_TAPCELL_ROW_3_177
*1666 TAP_TAPCELL_ROW_3_178
*1667 TAP_TAPCELL_ROW_3_179
*1668 TAP_TAPCELL_ROW_3_180
*1669 TAP_TAPCELL_ROW_3_181
*1670 TAP_TAPCELL_ROW_3_182
*1671 TAP_TAPCELL_ROW_3_183
*1672 TAP_TAPCELL_ROW_40_436
*1673 TAP_TAPCELL_ROW_40_437
*1674 TAP_TAPCELL_ROW_40_438
*1675 TAP_TAPCELL_ROW_40_439
*1676 TAP_TAPCELL_ROW_40_440
*1677 TAP_TAPCELL_ROW_40_441
*1678 TAP_TAPCELL_ROW_40_442
*1679 TAP_TAPCELL_ROW_41_443
*1680 TAP_TAPCELL_ROW_41_444
*1681 TAP_TAPCELL_ROW_41_445
*1682 TAP_TAPCELL_ROW_41_446
*1683 TAP_TAPCELL_ROW_41_447
*1684 TAP_TAPCELL_ROW_41_448
*1685 TAP_TAPCELL_ROW_41_449
*1686 TAP_TAPCELL_ROW_42_450
*1687 TAP_TAPCELL_ROW_42_451
*1688 TAP_TAPCELL_ROW_42_452
*1689 TAP_TAPCELL_ROW_42_453
*1690 TAP_TAPCELL_ROW_42_454
*1691 TAP_TAPCELL_ROW_42_455
*1692 TAP_TAPCELL_ROW_42_456
*1693 TAP_TAPCELL_ROW_43_457
*1694 TAP_TAPCELL_ROW_43_458
*1695 TAP_TAPCELL_ROW_43_459
*1696 TAP_TAPCELL_ROW_43_460
*1697 TAP_TAPCELL_ROW_43_461
*1698 TAP_TAPCELL_ROW_43_462
*1699 TAP_TAPCELL_ROW_43_463
*1700 TAP_TAPCELL_ROW_44_464
*1701 TAP_TAPCELL_ROW_44_465
*1702 TAP_TAPCELL_ROW_44_466
*1703 TAP_TAPCELL_ROW_44_467
*1704 TAP_TAPCELL_ROW_44_468
*1705 TAP_TAPCELL_ROW_44_469
*1706 TAP_TAPCELL_ROW_44_470
*1707 TAP_TAPCELL_ROW_45_471
*1708 TAP_TAPCELL_ROW_45_472
*1709 TAP_TAPCELL_ROW_45_473
*1710 TAP_TAPCELL_ROW_45_474
*1711 TAP_TAPCELL_ROW_45_475
*1712 TAP_TAPCELL_ROW_45_476
*1713 TAP_TAPCELL_ROW_45_477
*1714 TAP_TAPCELL_ROW_46_478
*1715 TAP_TAPCELL_ROW_46_479
*1716 TAP_TAPCELL_ROW_46_480
*1717 TAP_TAPCELL_ROW_46_481
*1718 TAP_TAPCELL_ROW_46_482
*1719 TAP_TAPCELL_ROW_46_483
*1720 TAP_TAPCELL_ROW_46_484
*1721 TAP_TAPCELL_ROW_47_485
*1722 TAP_TAPCELL_ROW_47_486
*1723 TAP_TAPCELL_ROW_47_487
*1724 TAP_TAPCELL_ROW_47_488
*1725 TAP_TAPCELL_ROW_47_489
*1726 TAP_TAPCELL_ROW_47_490
*1727 TAP_TAPCELL_ROW_47_491
*1728 TAP_TAPCELL_ROW_48_492
*1729 TAP_TAPCELL_ROW_48_493
*1730 TAP_TAPCELL_ROW_48_494
*1731 TAP_TAPCELL_ROW_48_495
*1732 TAP_TAPCELL_ROW_48_496
*1733 TAP_TAPCELL_ROW_48_497
*1734 TAP_TAPCELL_ROW_48_498
*1735 TAP_TAPCELL_ROW_49_499
*1736 TAP_TAPCELL_ROW_49_500
*1737 TAP_TAPCELL_ROW_49_501
*1738 TAP_TAPCELL_ROW_49_502
*1739 TAP_TAPCELL_ROW_49_503
*1740 TAP_TAPCELL_ROW_49_504
*1741 TAP_TAPCELL_ROW_49_505
*1742 TAP_TAPCELL_ROW_4_184
*1743 TAP_TAPCELL_ROW_4_185
*1744 TAP_TAPCELL_ROW_4_186
*1745 TAP_TAPCELL_ROW_4_187
*1746 TAP_TAPCELL_ROW_4_188
*1747 TAP_TAPCELL_ROW_4_189
*1748 TAP_TAPCELL_ROW_4_190
*1749 TAP_TAPCELL_ROW_50_506
*1750 TAP_TAPCELL_ROW_50_507
*1751 TAP_TAPCELL_ROW_50_508
*1752 TAP_TAPCELL_ROW_50_509
*1753 TAP_TAPCELL_ROW_50_510
*1754 TAP_TAPCELL_ROW_50_511
*1755 TAP_TAPCELL_ROW_50_512
*1756 TAP_TAPCELL_ROW_51_513
*1757 TAP_TAPCELL_ROW_51_514
*1758 TAP_TAPCELL_ROW_51_515
*1759 TAP_TAPCELL_ROW_51_516
*1760 TAP_TAPCELL_ROW_51_517
*1761 TAP_TAPCELL_ROW_51_518
*1762 TAP_TAPCELL_ROW_51_519
*1763 TAP_TAPCELL_ROW_52_520
*1764 TAP_TAPCELL_ROW_52_521
*1765 TAP_TAPCELL_ROW_52_522
*1766 TAP_TAPCELL_ROW_52_523
*1767 TAP_TAPCELL_ROW_52_524
*1768 TAP_TAPCELL_ROW_52_525
*1769 TAP_TAPCELL_ROW_52_526
*1770 TAP_TAPCELL_ROW_53_527
*1771 TAP_TAPCELL_ROW_53_528
*1772 TAP_TAPCELL_ROW_53_529
*1773 TAP_TAPCELL_ROW_53_530
*1774 TAP_TAPCELL_ROW_53_531
*1775 TAP_TAPCELL_ROW_53_532
*1776 TAP_TAPCELL_ROW_53_533
*1777 TAP_TAPCELL_ROW_54_534
*1778 TAP_TAPCELL_ROW_54_535
*1779 TAP_TAPCELL_ROW_54_536
*1780 TAP_TAPCELL_ROW_54_537
*1781 TAP_TAPCELL_ROW_54_538
*1782 TAP_TAPCELL_ROW_54_539
*1783 TAP_TAPCELL_ROW_54_540
*1784 TAP_TAPCELL_ROW_55_541
*1785 TAP_TAPCELL_ROW_55_542
*1786 TAP_TAPCELL_ROW_55_543
*1787 TAP_TAPCELL_ROW_55_544
*1788 TAP_TAPCELL_ROW_55_545
*1789 TAP_TAPCELL_ROW_55_546
*1790 TAP_TAPCELL_ROW_55_547
*1791 TAP_TAPCELL_ROW_56_548
*1792 TAP_TAPCELL_ROW_56_549
*1793 TAP_TAPCELL_ROW_56_550
*1794 TAP_TAPCELL_ROW_56_551
*1795 TAP_TAPCELL_ROW_56_552
*1796 TAP_TAPCELL_ROW_56_553
*1797 TAP_TAPCELL_ROW_56_554
*1798 TAP_TAPCELL_ROW_57_555
*1799 TAP_TAPCELL_ROW_57_556
*1800 TAP_TAPCELL_ROW_57_557
*1801 TAP_TAPCELL_ROW_57_558
*1802 TAP_TAPCELL_ROW_57_559
*1803 TAP_TAPCELL_ROW_57_560
*1804 TAP_TAPCELL_ROW_57_561
*1805 TAP_TAPCELL_ROW_58_562
*1806 TAP_TAPCELL_ROW_58_563
*1807 TAP_TAPCELL_ROW_58_564
*1808 TAP_TAPCELL_ROW_58_565
*1809 TAP_TAPCELL_ROW_58_566
*1810 TAP_TAPCELL_ROW_58_567
*1811 TAP_TAPCELL_ROW_58_568
*1812 TAP_TAPCELL_ROW_59_569
*1813 TAP_TAPCELL_ROW_59_570
*1814 TAP_TAPCELL_ROW_59_571
*1815 TAP_TAPCELL_ROW_59_572
*1816 TAP_TAPCELL_ROW_59_573
*1817 TAP_TAPCELL_ROW_59_574
*1818 TAP_TAPCELL_ROW_59_575
*1819 TAP_TAPCELL_ROW_5_191
*1820 TAP_TAPCELL_ROW_5_192
*1821 TAP_TAPCELL_ROW_5_193
*1822 TAP_TAPCELL_ROW_5_194
*1823 TAP_TAPCELL_ROW_5_195
*1824 TAP_TAPCELL_ROW_5_196
*1825 TAP_TAPCELL_ROW_5_197
*1826 TAP_TAPCELL_ROW_60_576
*1827 TAP_TAPCELL_ROW_60_577
*1828 TAP_TAPCELL_ROW_60_578
*1829 TAP_TAPCELL_ROW_60_579
*1830 TAP_TAPCELL_ROW_60_580
*1831 TAP_TAPCELL_ROW_60_581
*1832 TAP_TAPCELL_ROW_60_582
*1833 TAP_TAPCELL_ROW_61_583
*1834 TAP_TAPCELL_ROW_61_584
*1835 TAP_TAPCELL_ROW_61_585
*1836 TAP_TAPCELL_ROW_61_586
*1837 TAP_TAPCELL_ROW_61_587
*1838 TAP_TAPCELL_ROW_61_588
*1839 TAP_TAPCELL_ROW_61_589
*1840 TAP_TAPCELL_ROW_62_590
*1841 TAP_TAPCELL_ROW_62_591
*1842 TAP_TAPCELL_ROW_62_592
*1843 TAP_TAPCELL_ROW_62_593
*1844 TAP_TAPCELL_ROW_62_594
*1845 TAP_TAPCELL_ROW_62_595
*1846 TAP_TAPCELL_ROW_62_596
*1847 TAP_TAPCELL_ROW_63_597
*1848 TAP_TAPCELL_ROW_63_598
*1849 TAP_TAPCELL_ROW_63_599
*1850 TAP_TAPCELL_ROW_63_600
*1851 TAP_TAPCELL_ROW_63_601
*1852 TAP_TAPCELL_ROW_63_602
*1853 TAP_TAPCELL_ROW_63_603
*1854 TAP_TAPCELL_ROW_64_604
*1855 TAP_TAPCELL_ROW_64_605
*1856 TAP_TAPCELL_ROW_64_606
*1857 TAP_TAPCELL_ROW_64_607
*1858 TAP_TAPCELL_ROW_64_608
*1859 TAP_TAPCELL_ROW_64_609
*1860 TAP_TAPCELL_ROW_64_610
*1861 TAP_TAPCELL_ROW_65_611
*1862 TAP_TAPCELL_ROW_65_612
*1863 TAP_TAPCELL_ROW_65_613
*1864 TAP_TAPCELL_ROW_65_614
*1865 TAP_TAPCELL_ROW_65_615
*1866 TAP_TAPCELL_ROW_65_616
*1867 TAP_TAPCELL_ROW_65_617
*1868 TAP_TAPCELL_ROW_66_618
*1869 TAP_TAPCELL_ROW_66_619
*1870 TAP_TAPCELL_ROW_66_620
*1871 TAP_TAPCELL_ROW_66_621
*1872 TAP_TAPCELL_ROW_66_622
*1873 TAP_TAPCELL_ROW_66_623
*1874 TAP_TAPCELL_ROW_66_624
*1875 TAP_TAPCELL_ROW_67_625
*1876 TAP_TAPCELL_ROW_67_626
*1877 TAP_TAPCELL_ROW_67_627
*1878 TAP_TAPCELL_ROW_67_628
*1879 TAP_TAPCELL_ROW_67_629
*1880 TAP_TAPCELL_ROW_67_630
*1881 TAP_TAPCELL_ROW_67_631
*1882 TAP_TAPCELL_ROW_68_632
*1883 TAP_TAPCELL_ROW_68_633
*1884 TAP_TAPCELL_ROW_68_634
*1885 TAP_TAPCELL_ROW_68_635
*1886 TAP_TAPCELL_ROW_68_636
*1887 TAP_TAPCELL_ROW_68_637
*1888 TAP_TAPCELL_ROW_68_638
*1889 TAP_TAPCELL_ROW_69_639
*1890 TAP_TAPCELL_ROW_69_640
*1891 TAP_TAPCELL_ROW_69_641
*1892 TAP_TAPCELL_ROW_69_642
*1893 TAP_TAPCELL_ROW_69_643
*1894 TAP_TAPCELL_ROW_69_644
*1895 TAP_TAPCELL_ROW_69_645
*1896 TAP_TAPCELL_ROW_6_198
*1897 TAP_TAPCELL_ROW_6_199
*1898 TAP_TAPCELL_ROW_6_200
*1899 TAP_TAPCELL_ROW_6_201
*1900 TAP_TAPCELL_ROW_6_202
*1901 TAP_TAPCELL_ROW_6_203
*1902 TAP_TAPCELL_ROW_6_204
*1903 TAP_TAPCELL_ROW_70_646
*1904 TAP_TAPCELL_ROW_70_647
*1905 TAP_TAPCELL_ROW_70_648
*1906 TAP_TAPCELL_ROW_70_649
*1907 TAP_TAPCELL_ROW_70_650
*1908 TAP_TAPCELL_ROW_70_651
*1909 TAP_TAPCELL_ROW_70_652
*1910 TAP_TAPCELL_ROW_71_653
*1911 TAP_TAPCELL_ROW_71_654
*1912 TAP_TAPCELL_ROW_71_655
*1913 TAP_TAPCELL_ROW_71_656
*1914 TAP_TAPCELL_ROW_71_657
*1915 TAP_TAPCELL_ROW_71_658
*1916 TAP_TAPCELL_ROW_71_659
*1917 TAP_TAPCELL_ROW_72_660
*1918 TAP_TAPCELL_ROW_72_661
*1919 TAP_TAPCELL_ROW_72_662
*1920 TAP_TAPCELL_ROW_72_663
*1921 TAP_TAPCELL_ROW_72_664
*1922 TAP_TAPCELL_ROW_72_665
*1923 TAP_TAPCELL_ROW_72_666
*1924 TAP_TAPCELL_ROW_73_667
*1925 TAP_TAPCELL_ROW_73_668
*1926 TAP_TAPCELL_ROW_73_669
*1927 TAP_TAPCELL_ROW_73_670
*1928 TAP_TAPCELL_ROW_73_671
*1929 TAP_TAPCELL_ROW_73_672
*1930 TAP_TAPCELL_ROW_73_673
*1931 TAP_TAPCELL_ROW_73_674
*1932 TAP_TAPCELL_ROW_73_675
*1933 TAP_TAPCELL_ROW_73_676
*1934 TAP_TAPCELL_ROW_73_677
*1935 TAP_TAPCELL_ROW_73_678
*1936 TAP_TAPCELL_ROW_73_679
*1937 TAP_TAPCELL_ROW_73_680
*1938 TAP_TAPCELL_ROW_73_681
*1939 TAP_TAPCELL_ROW_7_205
*1940 TAP_TAPCELL_ROW_7_206
*1941 TAP_TAPCELL_ROW_7_207
*1942 TAP_TAPCELL_ROW_7_208
*1943 TAP_TAPCELL_ROW_7_209
*1944 TAP_TAPCELL_ROW_7_210
*1945 TAP_TAPCELL_ROW_7_211
*1946 TAP_TAPCELL_ROW_8_212
*1947 TAP_TAPCELL_ROW_8_213
*1948 TAP_TAPCELL_ROW_8_214
*1949 TAP_TAPCELL_ROW_8_215
*1950 TAP_TAPCELL_ROW_8_216
*1951 TAP_TAPCELL_ROW_8_217
*1952 TAP_TAPCELL_ROW_8_218
*1953 TAP_TAPCELL_ROW_9_219
*1954 TAP_TAPCELL_ROW_9_220
*1955 TAP_TAPCELL_ROW_9_221
*1956 TAP_TAPCELL_ROW_9_222
*1957 TAP_TAPCELL_ROW_9_223
*1958 TAP_TAPCELL_ROW_9_224
*1959 TAP_TAPCELL_ROW_9_225
*1960 _08_
*1961 _09_
*1962 _10_
*1963 _11_
*1964 _12_
*1965 _13_
*1966 _14_
*1967 _15_
*1968 _16_
*1969 _17_
*1970 _18_
*1971 _19_
*1972 clkbuf_0_clk
*1973 clkbuf_1_0__f_clk
*1974 clkbuf_1_1__f_clk
*1975 input1
*1976 output2
*1977 output3
*1978 output4
*1979 output5

*PORTS
clk I
q[0] O
q[1] O
q[2] O
q[3] O
rst I

*D_NET *3 0.0180099
*CONN
*P clk I
*I *1972:I I *D gf180mcu_fd_sc_mcu7t5v0__clkbuf_16
*I *25:I I *D gf180mcu_fd_sc_mcu7t5v0__antenna
*CAP
1 clk 0.000933816
2 *1972:I 0.000182331
3 *25:I 0
4 *3:14 0.000685224
5 *3:12 0.00397774
6 *3:8 0.00440866
7 *1972:I *1969:D 6.11895e-05
8 *1972:I *20:25 3.42651e-05
9 *1972:I *20:38 0
10 *3:8 q[3] 0.00031549
11 *3:8 *8:9 0.000353127
12 *3:8 *24:12 0.00028178
13 *3:12 *1963:A1 0.000214229
14 *3:12 *1971:CLK 5.76275e-05
15 *3:12 *24:12 0.0061978
16 *3:14 *1963:A2 0
17 *3:14 *1965:A2 0
18 *3:14 *1969:D 0.000169099
19 *3:14 *1969:CLK 0
20 *3:14 *1971:CLK 9.56769e-05
21 *3:14 *20:25 4.18157e-05
*RES
1 clk *3:8 8.06 
2 *3:8 *3:12 48.7 
3 *3:12 *3:14 3.848 
4 *3:14 *25:I 4.5 
5 *3:14 *1972:I 14.956 
*END

*D_NET *4 0.0011171
*CONN
*P q[0] O
*I *1976:Z O *D gf180mcu_fd_sc_mcu7t5v0__dlyb_1
*CAP
1 q[0] 0.00034746
2 *1976:Z 0.00034746
3 q[0] q[1] 0.000422177
*RES
1 *1976:Z q[0] 8.34057 
*END

*D_NET *5 0.00148971
*CONN
*P q[1] O
*I *1977:Z O *D gf180mcu_fd_sc_mcu7t5v0__dlyb_1
*CAP
1 q[1] 0.000471443
2 *1977:Z 0.000471443
3 q[1] q[2] 0.000124646
4 q[1] *21:54 0
5 q[0] q[1] 0.000422177
*RES
1 *1977:Z q[1] 9.27657 
*END

*D_NET *6 0.0014371
*CONN
*P q[2] O
*I *1978:Z O *D gf180mcu_fd_sc_mcu7t5v0__dlyb_1
*CAP
1 q[2] 0.000640331
2 *1978:Z 0.000640331
3 q[2] *21:54 3.17907e-05
4 q[1] q[2] 0.000124646
*RES
1 *1978:Z q[2] 19.0046 
*END

*D_NET *7 0.00125346
*CONN
*P q[3] O
*I *1979:Z O *D gf180mcu_fd_sc_mcu7t5v0__dlyb_1
*CAP
1 q[3] 0.000309989
2 *1979:Z 0.000309989
3 q[3] *8:9 0.000317994
4 *3:8 q[3] 0.00031549
*RES
1 *1979:Z q[3] 12.276 
*END

*D_NET *8 0.00178077
*CONN
*P rst I
*I *26:I I *D gf180mcu_fd_sc_mcu7t5v0__antenna
*I *1975:I I *D gf180mcu_fd_sc_mcu7t5v0__dlyb_1
*CAP
1 rst 0.000295982
2 *26:I 0.000258845
3 *1975:I 0
4 *8:9 0.000554827
5 q[3] *8:9 0.000317994
6 *3:8 *8:9 0.000353127
*RES
1 rst *8:9 7.776 
2 *8:9 *1975:I 4.5 
3 *8:9 *26:I 6.372 
*END

*D_NET *9 0.000736418
*CONN
*I *1970:D I *D gf180mcu_fd_sc_mcu7t5v0__dffq_1
*I *1962:ZN O *D gf180mcu_fd_sc_mcu7t5v0__nor3_1
*CAP
1 *1970:D 0.00014398
2 *1962:ZN 0.00014398
3 *1970:D *1962:A1 0.000260055
4 *1970:D *1965:A2 0.000188403
5 *1970:D *19:12 0
*RES
1 *1962:ZN *1970:D 10.456 
*END

*D_NET *10 0.0012181
*CONN
*I *1971:D I *D gf180mcu_fd_sc_mcu7t5v0__dffq_1
*I *1964:ZN O *D gf180mcu_fd_sc_mcu7t5v0__nor2_1
*CAP
1 *1971:D 0.000309564
2 *1964:ZN 0.000309564
3 *1971:D *1963:A2 0.000579191
4 *1971:D *1964:A2 1.97798e-05
*RES
1 *1964:ZN *1971:D 12.12 
*END

*D_NET *11 0.000420093
*CONN
*I *1968:D I *D gf180mcu_fd_sc_mcu7t5v0__dffq_1
*I *1965:ZN O *D gf180mcu_fd_sc_mcu7t5v0__nor2_1
*CAP
1 *1968:D 0.000134063
2 *1965:ZN 0.000134063
3 *1968:D *1960:A2 0
4 *1968:D *1965:A2 0.000151966
*RES
1 *1965:ZN *1968:D 10.248 
*END

*D_NET *12 0.00166647
*CONN
*I *1969:D I *D gf180mcu_fd_sc_mcu7t5v0__dffq_1
*I *1967:ZN O *D gf180mcu_fd_sc_mcu7t5v0__nor2_1
*CAP
1 *1969:D 0.000543398
2 *1967:ZN 0.000543398
3 *1969:D *1962:A2 0.000152316
4 *1969:D *1969:CLK 9.1985e-05
5 *1969:D *1971:CLK 0
6 *1969:D *18:10 0
7 *1969:D *20:25 0.00010509
8 *1972:I *1969:D 6.11895e-05
9 *3:14 *1969:D 0.000169099
*RES
1 *1967:ZN *1969:D 23.2 
*END

*D_NET *13 0.00523714
*CONN
*I *1962:A2 I *D gf180mcu_fd_sc_mcu7t5v0__nor3_1
*I *1960:ZN O *D gf180mcu_fd_sc_mcu7t5v0__aoi21_1
*CAP
1 *1962:A2 0.00076393
2 *1960:ZN 0.00076393
3 *1962:A2 *1960:A2 0.000957709
4 *1962:A2 *1962:A1 0.000112681
5 *1962:A2 *1965:A2 0.000424276
6 *1962:A2 *1967:A2 2.39211e-05
7 *1962:A2 *1969:CLK 0.000890973
8 *1962:A2 *18:10 0.000500761
9 *1962:A2 *20:38 0
10 *1962:A2 *21:12 3.10787e-05
11 *1962:A2 *21:30 0.000260861
12 *1962:A2 *22:10 1.25277e-05
13 *1962:A2 *22:27 0.000342178
14 *1969:D *1962:A2 0.000152316
*RES
1 *1960:ZN *1962:A2 28.296 
*END

*D_NET *14 0.00471088
*CONN
*I *1962:A3 I *D gf180mcu_fd_sc_mcu7t5v0__nor3_1
*I *1963:A2 I *D gf180mcu_fd_sc_mcu7t5v0__xnor2_1
*I *1961:Z O *D gf180mcu_fd_sc_mcu7t5v0__and3_1
*CAP
1 *1962:A3 0
2 *1963:A2 0.00115328
3 *1961:Z 0.000644407
4 *14:10 0.00179769
5 *1963:A2 *1964:A2 0
6 *1963:A2 *1967:A2 5.76352e-05
7 *1963:A2 *1971:CLK 2.93608e-05
8 *1963:A2 *20:25 0
9 *1963:A2 *20:38 9.59402e-05
10 *14:10 *1967:A2 0.000118099
11 *14:10 *19:12 0
12 *14:10 *20:38 4.64451e-05
13 *14:10 *21:30 9.41125e-05
14 *14:10 *22:35 3.05326e-05
15 *14:10 *23:19 6.41811e-05
16 *1971:D *1963:A2 0.000579191
17 *3:14 *1963:A2 0
*RES
1 *1961:Z *14:10 14.616 
2 *14:10 *1963:A2 18.464 
3 *14:10 *1962:A3 9 
*END

*D_NET *15 0.000761971
*CONN
*I *1964:A2 I *D gf180mcu_fd_sc_mcu7t5v0__nor2_1
*I *1963:ZN O *D gf180mcu_fd_sc_mcu7t5v0__xnor2_1
*CAP
1 *1964:A2 0.000371096
2 *1963:ZN 0.000371096
3 *1963:A2 *1964:A2 0
4 *1971:D *1964:A2 1.97798e-05
*RES
1 *1963:ZN *1964:A2 11.392 
*END

*D_NET *16 0.00154531
*CONN
*I *1967:A2 I *D gf180mcu_fd_sc_mcu7t5v0__nor2_1
*I *1966:ZN O *D gf180mcu_fd_sc_mcu7t5v0__xnor2_1
*CAP
1 *1967:A2 0.000651511
2 *1966:ZN 0.000651511
3 *1967:A2 *20:38 4.26345e-05
4 *1962:A2 *1967:A2 2.39211e-05
5 *1963:A2 *1967:A2 5.76352e-05
6 *14:10 *1967:A2 0.000118099
*RES
1 *1966:ZN *1967:A2 23.2 
*END

*D_NET *17 0.00364155
*CONN
*I *1974:I I *D gf180mcu_fd_sc_mcu7t5v0__clkbuf_16
*I *1973:I I *D gf180mcu_fd_sc_mcu7t5v0__clkbuf_16
*I *1972:Z O *D gf180mcu_fd_sc_mcu7t5v0__clkbuf_16
*CAP
1 *1974:I 0.000552545
2 *1973:I 0.00126823
3 *1972:Z 0.00182077
4 *1973:I *1960:B 0
*RES
1 *1972:Z *1973:I 17.632 
2 *1972:Z *1974:I 12.952 
*END

*D_NET *18 0.0043443
*CONN
*I *1968:CLK I *D gf180mcu_fd_sc_mcu7t5v0__dffq_1
*I *1971:CLK I *D gf180mcu_fd_sc_mcu7t5v0__dffq_1
*I *1973:Z O *D gf180mcu_fd_sc_mcu7t5v0__clkbuf_16
*CAP
1 *1968:CLK 0
2 *1971:CLK 0.000424195
3 *1973:Z 0.00111676
4 *18:10 0.00154095
5 *18:10 *1965:A1 0
6 *18:10 *21:12 0.00057304
7 *18:10 *22:10 5.92832e-06
8 *1962:A2 *18:10 0.000500761
9 *1963:A2 *1971:CLK 2.93608e-05
10 *1969:D *1971:CLK 0
11 *1969:D *18:10 0
12 *3:12 *1971:CLK 5.76275e-05
13 *3:14 *1971:CLK 9.56769e-05
*RES
1 *1973:Z *18:10 18.36 
2 *18:10 *1971:CLK 12.744 
3 *18:10 *1968:CLK 9 
*END

*D_NET *19 0.00339792
*CONN
*I *1969:CLK I *D gf180mcu_fd_sc_mcu7t5v0__dffq_1
*I *1970:CLK I *D gf180mcu_fd_sc_mcu7t5v0__dffq_1
*I *1974:Z O *D gf180mcu_fd_sc_mcu7t5v0__clkbuf_16
*CAP
1 *1969:CLK 0.000316091
2 *1970:CLK 0
3 *1974:Z 0.000575954
4 *19:12 0.000892045
5 *1969:CLK *1965:A2 5.18435e-05
6 *1969:CLK *20:25 0
7 *1969:CLK *20:38 0
8 *19:12 *20:38 7.82526e-05
9 *19:12 *22:27 0.000500772
10 *1962:A2 *1969:CLK 0.000890973
11 *1969:D *1969:CLK 9.1985e-05
12 *1970:D *19:12 0
13 *3:14 *1969:CLK 0
14 *14:10 *19:12 0
*RES
1 *1974:Z *19:12 18.076 
2 *19:12 *1970:CLK 4.5 
3 *19:12 *1969:CLK 8.14 
*END

*D_NET *20 0.0176967
*CONN
*I *1962:A1 I *D gf180mcu_fd_sc_mcu7t5v0__nor3_1
*I *1965:A2 I *D gf180mcu_fd_sc_mcu7t5v0__nor2_1
*I *1967:A1 I *D gf180mcu_fd_sc_mcu7t5v0__nor2_1
*I *1964:A1 I *D gf180mcu_fd_sc_mcu7t5v0__nor2_1
*I *1975:Z O *D gf180mcu_fd_sc_mcu7t5v0__dlyb_1
*CAP
1 *1962:A1 6.30177e-05
2 *1965:A2 0.000839502
3 *1967:A1 0
4 *1964:A1 0
5 *1975:Z 0.000375398
6 *20:38 0.00127894
7 *20:25 0.00116334
8 *20:10 0.00637718
9 *20:8 0.00596566
10 *1965:A2 *1960:A2 0
11 *1962:A2 *1962:A1 0.000112681
12 *1962:A2 *1965:A2 0.000424276
13 *1962:A2 *20:38 0
14 *1963:A2 *20:25 0
15 *1963:A2 *20:38 9.59402e-05
16 *1967:A2 *20:38 4.26345e-05
17 *1968:D *1965:A2 0.000151966
18 *1969:D *20:25 0.00010509
19 *1969:CLK *1965:A2 5.18435e-05
20 *1969:CLK *20:25 0
21 *1969:CLK *20:38 0
22 *1970:D *1962:A1 0.000260055
23 *1970:D *1965:A2 0.000188403
24 *1972:I *20:25 3.42651e-05
25 *1972:I *20:38 0
26 *3:14 *1965:A2 0
27 *3:14 *20:25 4.18157e-05
28 *14:10 *20:38 4.64451e-05
29 *19:12 *20:38 7.82526e-05
*RES
1 *1975:Z *20:8 11.392 
2 *20:8 *20:10 43.368 
3 *20:10 *1964:A1 9 
4 *20:10 *20:25 10.428 
5 *20:25 *1967:A1 4.5 
6 *20:25 *20:38 12.12 
7 *20:38 *1965:A2 11.78 
8 *20:38 *1962:A1 5.436 
*END

*D_NET *21 0.0275906
*CONN
*I *1976:I I *D gf180mcu_fd_sc_mcu7t5v0__dlyb_1
*I *1961:A1 I *D gf180mcu_fd_sc_mcu7t5v0__and3_1
*I *1966:A1 I *D gf180mcu_fd_sc_mcu7t5v0__xnor2_1
*I *1960:A1 I *D gf180mcu_fd_sc_mcu7t5v0__aoi21_1
*I *1965:A1 I *D gf180mcu_fd_sc_mcu7t5v0__nor2_1
*I *1968:Q O *D gf180mcu_fd_sc_mcu7t5v0__dffq_1
*CAP
1 *1976:I 0
2 *1961:A1 0
3 *1966:A1 5.93547e-05
4 *1960:A1 0
5 *1965:A1 0.00024719
6 *1968:Q 0.00016109
7 *21:54 0.00357604
8 *21:41 0.00372214
9 *21:30 0.000958917
10 *21:12 0.00038635
11 *21:10 0.00105372
12 *1966:A1 *22:27 2.73715e-06
13 *21:10 *22:10 9.17722e-05
14 *21:12 *1960:B 6.05432e-05
15 *21:30 *1960:B 8.08967e-05
16 *21:30 *22:27 0.00056754
17 *21:30 *23:19 0
18 *21:41 *22:35 0.000680557
19 *21:41 *23:32 7.05729e-05
20 *21:54 *1977:I 0.0145792
21 *21:54 *22:48 0
22 *21:54 *23:32 0.000301087
23 q[1] *21:54 0
24 q[2] *21:54 3.17907e-05
25 *1962:A2 *21:12 3.10787e-05
26 *1962:A2 *21:30 0.000260861
27 *14:10 *21:30 9.41125e-05
28 *18:10 *1965:A1 0
29 *18:10 *21:12 0.00057304
*RES
1 *1968:Q *21:10 15.06 
2 *21:10 *21:12 1.768 
3 *21:12 *1965:A1 15.476 
4 *21:12 *1960:A1 4.5 
5 *21:10 *21:30 7.176 
6 *21:30 *1966:A1 5.02 
7 *21:30 *21:41 6.476 
8 *21:41 *1961:A1 9 
9 *21:41 *21:54 47.348 
10 *21:54 *1976:I 4.5 
*END

*D_NET *22 0.0284889
*CONN
*I *1966:A2 I *D gf180mcu_fd_sc_mcu7t5v0__xnor2_1
*I *1977:I I *D gf180mcu_fd_sc_mcu7t5v0__dlyb_1
*I *1961:A2 I *D gf180mcu_fd_sc_mcu7t5v0__and3_1
*I *1960:A2 I *D gf180mcu_fd_sc_mcu7t5v0__aoi21_1
*I *1969:Q O *D gf180mcu_fd_sc_mcu7t5v0__dffq_1
*CAP
1 *1966:A2 0
2 *1977:I 0.00306883
3 *1961:A2 0
4 *1960:A2 0.000239902
5 *1969:Q 0.000276324
6 *22:48 0.00335951
7 *22:35 0.000582221
8 *22:27 0.000910256
9 *22:10 0.00113494
10 *22:35 *23:19 0.000103788
11 *22:35 *23:32 3.4596e-05
12 *22:48 *23:32 0.00100713
13 *1962:A2 *1960:A2 0.000957709
14 *1962:A2 *22:10 1.25277e-05
15 *1962:A2 *22:27 0.000342178
16 *1965:A2 *1960:A2 0
17 *1966:A1 *22:27 2.73715e-06
18 *1968:D *1960:A2 0
19 *14:10 *22:35 3.05326e-05
20 *18:10 *22:10 5.92832e-06
21 *19:12 *22:27 0.000500772
22 *21:10 *22:10 9.17722e-05
23 *21:30 *22:27 0.00056754
24 *21:41 *22:35 0.000680557
25 *21:54 *1977:I 0.0145792
26 *21:54 *22:48 0
*RES
1 *1969:Q *22:10 15.684 
2 *22:10 *1960:A2 7.1 
3 *22:10 *22:27 6.76 
4 *22:27 *22:35 11.704 
5 *22:35 *1961:A2 4.5 
6 *22:35 *22:48 11.912 
7 *22:48 *1977:I 43.084 
8 *22:27 *1966:A2 4.5 
*END

*D_NET *23 0.0177458
*CONN
*I *1978:I I *D gf180mcu_fd_sc_mcu7t5v0__dlyb_1
*I *1961:A3 I *D gf180mcu_fd_sc_mcu7t5v0__and3_1
*I *1960:B I *D gf180mcu_fd_sc_mcu7t5v0__aoi21_1
*I *1970:Q O *D gf180mcu_fd_sc_mcu7t5v0__dffq_1
*CAP
1 *1978:I 0.00589315
2 *1961:A3 0
3 *1960:B 0.000938618
4 *1970:Q 0
5 *23:32 0.00662947
6 *23:19 0.00117975
7 *23:4 0.00138205
8 *1973:I *1960:B 0
9 *14:10 *23:19 6.41811e-05
10 *21:12 *1960:B 6.05432e-05
11 *21:30 *1960:B 8.08967e-05
12 *21:30 *23:19 0
13 *21:41 *23:32 7.05729e-05
14 *21:54 *23:32 0.000301087
15 *22:35 *23:19 0.000103788
16 *22:35 *23:32 3.4596e-05
17 *22:48 *23:32 0.00100713
*RES
1 *1970:Q *23:4 4.5 
2 *23:4 *1960:B 11.364 
3 *23:4 *23:19 3.224 
4 *23:19 *1961:A3 4.5 
5 *23:19 *23:32 15.448 
6 *23:32 *1978:I 45.164 
*END

*D_NET *24 0.0149688
*CONN
*I *1963:A1 I *D gf180mcu_fd_sc_mcu7t5v0__xnor2_1
*I *1979:I I *D gf180mcu_fd_sc_mcu7t5v0__dlyb_1
*I *1971:Q O *D gf180mcu_fd_sc_mcu7t5v0__dffq_1
*CAP
1 *1963:A1 0.000272675
2 *1979:I 5.16421e-05
3 *1971:Q 0.000213511
4 *24:12 0.00365131
5 *24:6 0.00408586
6 *3:8 *24:12 0.00028178
7 *3:12 *1963:A1 0.000214229
8 *3:12 *24:12 0.0061978
*RES
1 *1971:Q *24:6 5.852 
2 *24:6 *24:12 47.348 
3 *24:12 *1979:I 9.312 
4 *24:6 *1963:A1 16.724 
*END
